in_size = 5;
statements = [ 
"int@A x = 0@A;", 
"int@B y = 1@B;",
"int@A y_A = y;",
"fun@B(x, y_A);",
"fun@A(x, y);" ]; 

statements_roles = [
r(A), r(B), r(A), r(B), r(A)];

roles = {A, B};

num_blocks=1;

blocks = [|
0, in_size, 0|];

statements_blocks = [ 
1, 1, 1,
1, 1];

num_ifs = 0;
if_blocks = [];
if_roles = [];

num_deps = 3;
dependencies = array1d( DEPS, [
  "y", "x", "y_A"]); 
dep_from = array1d( DEPS, [
  B, A, A]); 
dep_to = array1d( DEPS, [
  A, B, B]); 
dep_def_at = array1d( DEPS, [
  2, 1, 3]);
  
dep_used_at = [|
DEPS[1], 3|
DEPS[1], 5|
DEPS[2], 4|
DEPS[3], 4|];














